NAME : ClusterId_193 
COMMENT : (Gillet and Johnson) 
TYPE : CVRP 
DIMENSION : 27 
EDGE_WEIGHT_TYPE : EUC_2D 
CAPACITY : 80 
NODE_COORD_SECTION 
193 6166 10866 
30 1144 8086 
34 178 8866 
44 1492 8220 
77 1164 8587 
13 594 9180 
43 2361 8448 
100 2643 8334 
182 5871 7544 
81 3333 8268 
176 6027 7871 
5 2916 8828 
51 7975 8236 
17 3778 8993 
33 9904 9399 
1 2271 9828 
66 6809 8717 
183 5588 8770 
190 6104 8743 
177 5855 8777 
82 6419 8830 
75 3596 9748 
15 5770 9275 
184 5954 9291 
8 4069 9674 
186 6033 9500 
191 5996 9792 
DEMAND_SECTION 
193 550
30 26
34 21
44 23
77 9
13 19
43 24
100 10
182 32
81 34
176 22
5 13
51 4
17 29
33 14
1 4
66 21
183 14
190 21
177 32
82 32
75 29
15 27
184 21
8 4
186 35
191 23
DEPOT_SECTION 
193
 -1
EOF